80
1891
4
33
56
78
1
0 4
0 5
0 7
0 8
0 9
0 10
0 11
0 12
0 13
0 14
0 15
0 16
0 17
0 18
0 19
0 20
0 25
0 28
0 29
0 31
0 33
0 35
0 38
0 40
0 42
0 44
0 46
0 48
0 49
0 50
0 53
0 54
0 55
0 56
0 58
0 59
0 60
0 61
0 62
0 63
0 66
0 67
0 68
0 69
0 70
0 71
0 72
0 73
0 76
0 78
0 79
1 4
1 5
1 8
1 9
1 10
1 11
1 12
1 13
1 14
1 16
1 19
1 20
1 22
1 26
1 27
1 28
1 30
1 31
1 32
1 33
1 34
1 35
1 36
1 37
1 39
1 40
1 43
1 44
1 45
1 47
1 48
1 50
1 52
1 60
1 61
1 62
1 63
1 64
1 65
1 67
1 68
1 69
1 70
1 72
1 73
1 75
1 77
1 78
1 79
2 3
2 4
2 7
2 8
2 10
2 12
2 13
2 14
2 15
2 18
2 19
2 20
2 21
2 22
2 23
2 25
2 27
2 28
2 29
2 30
2 32
2 33
2 37
2 38
2 39
2 40
2 42
2 44
2 45
2 46
2 48
2 49
2 52
2 55
2 57
2 58
2 60
2 61
2 64
2 67
2 69
2 70
2 71
2 73
2 74
2 77
2 78
2 79
3 11
3 12
3 13
3 15
3 18
3 19
3 20
3 22
3 25
3 27
3 28
3 30
3 32
3 34
3 35
3 37
3 38
3 39
3 40
3 41
3 42
3 43
3 47
3 48
3 49
3 50
3 51
3 52
3 53
3 54
3 55
3 61
3 62
3 63
3 68
3 69
3 70
3 71
3 73
3 74
3 76
3 77
4 6
4 7
4 8
4 9
4 10
4 11
4 15
4 16
4 18
4 20
4 23
4 24
4 25
4 29
4 30
4 33
4 35
4 37
4 38
4 39
4 44
4 45
4 47
4 49
4 50
4 53
4 55
4 56
4 58
4 61
4 62
4 63
4 64
4 65
4 71
4 73
4 76
4 79
5 6
5 7
5 8
5 9
5 13
5 17
5 19
5 21
5 23
5 24
5 26
5 27
5 28
5 29
5 30
5 31
5 33
5 34
5 35
5 36
5 37
5 38
5 39
5 40
5 43
5 44
5 45
5 46
5 47
5 48
5 49
5 51
5 55
5 56
5 57
5 58
5 61
5 62
5 63
5 67
5 68
5 69
5 71
5 72
5 73
5 75
5 76
5 78
6 7
6 11
6 12
6 16
6 19
6 20
6 21
6 23
6 25
6 26
6 28
6 29
6 31
6 32
6 34
6 35
6 36
6 44
6 45
6 46
6 52
6 53
6 55
6 57
6 59
6 60
6 62
6 63
6 64
6 69
6 70
6 71
6 72
6 76
6 77
6 79
7 8
7 9
7 11
7 12
7 13
7 15
7 17
7 19
7 20
7 21
7 28
7 30
7 33
7 36
7 37
7 40
7 42
7 43
7 44
7 46
7 47
7 48
7 50
7 52
7 53
7 55
7 56
7 57
7 58
7 59
7 62
7 63
7 64
7 66
7 68
7 69
7 70
7 72
7 73
7 75
7 76
7 77
8 10
8 13
8 14
8 16
8 18
8 19
8 26
8 27
8 28
8 29
8 30
8 32
8 33
8 34
8 35
8 36
8 37
8 40
8 41
8 42
8 43
8 46
8 47
8 48
8 49
8 50
8 51
8 52
8 53
8 55
8 58
8 60
8 63
8 64
8 65
8 66
8 68
8 71
8 72
8 75
8 76
9 10
9 11
9 12
9 13
9 15
9 16
9 17
9 18
9 19
9 21
9 22
9 24
9 25
9 26
9 27
9 28
9 29
9 30
9 31
9 35
9 36
9 37
9 38
9 41
9 42
9 43
9 44
9 45
9 46
9 47
9 49
9 51
9 52
9 54
9 56
9 57
9 58
9 60
9 62
9 63
9 64
9 66
9 67
9 69
9 72
9 73
9 74
9 75
9 76
10 11
10 12
10 17
10 20
10 21
10 23
10 25
10 26
10 29
10 30
10 31
10 32
10 33
10 34
10 35
10 36
10 38
10 39
10 41
10 45
10 47
10 48
10 49
10 50
10 52
10 54
10 56
10 57
10 60
10 61
10 62
10 64
10 65
10 66
10 67
10 68
10 71
10 72
10 73
10 77
10 78
10 79
11 13
11 18
11 19
11 20
11 21
11 25
11 26
11 27
11 28
11 29
11 32
11 33
11 35
11 36
11 38
11 39
11 42
11 43
11 44
11 51
11 54
11 55
11 57
11 60
11 62
11 63
11 66
11 67
11 68
11 69
11 70
11 71
11 72
11 73
11 74
11 77
11 78
11 79
12 14
12 20
12 21
12 23
12 24
12 25
12 26
12 27
12 28
12 29
12 30
12 32
12 34
12 35
12 37
12 38
12 40
12 42
12 45
12 46
12 49
12 50
12 51
12 52
12 54
12 56
12 57
12 58
12 59
12 60
12 61
12 62
12 63
12 65
12 66
12 69
12 71
12 72
12 73
12 75
12 76
12 77
12 78
12 79
13 15
13 16
13 18
13 19
13 21
13 22
13 24
13 25
13 26
13 28
13 29
13 30
13 32
13 33
13 34
13 36
13 37
13 38
13 39
13 40
13 41
13 46
13 49
13 50
13 51
13 55
13 57
13 58
13 59
13 60
13 63
13 64
13 65
13 66
13 67
13 68
13 72
13 73
13 75
13 77
13 78
13 79
14 15
14 17
14 19
14 21
14 24
14 25
14 26
14 30
14 32
14 33
14 34
14 35
14 36
14 37
14 38
14 39
14 40
14 42
14 43
14 44
14 45
14 46
14 47
14 48
14 50
14 52
14 53
14 54
14 55
14 57
14 59
14 60
14 61
14 62
14 65
14 66
14 68
14 70
14 73
14 74
14 75
14 78
14 79
15 16
15 18
15 19
15 20
15 21
15 24
15 26
15 27
15 29
15 31
15 38
15 39
15 40
15 41
15 42
15 44
15 45
15 48
15 49
15 50
15 52
15 54
15 55
15 58
15 59
15 62
15 63
15 64
15 68
15 70
15 71
15 74
15 76
15 77
15 78
15 79
16 18
16 19
16 21
16 23
16 24
16 25
16 27
16 28
16 29
16 30
16 31
16 33
16 35
16 36
16 39
16 41
16 43
16 44
16 45
16 46
16 51
16 52
16 53
16 54
16 55
16 56
16 57
16 58
16 59
16 60
16 61
16 62
16 63
16 65
16 66
16 67
16 70
16 72
16 73
16 74
16 76
16 77
16 79
17 19
17 21
17 24
17 27
17 28
17 29
17 32
17 33
17 34
17 36
17 37
17 38
17 39
17 40
17 43
17 45
17 46
17 47
17 49
17 51
17 52
17 53
17 55
17 57
17 58
17 59
17 61
17 62
17 63
17 64
17 65
17 66
17 67
17 68
17 69
17 70
17 72
17 73
17 75
17 76
17 77
17 79
18 19
18 20
18 23
18 25
18 26
18 28
18 30
18 31
18 35
18 36
18 38
18 39
18 40
18 41
18 45
18 46
18 49
18 51
18 54
18 57
18 58
18 59
18 60
18 62
18 63
18 64
18 65
18 66
18 67
18 70
18 73
18 74
18 75
18 77
18 78
19 20
19 23
19 26
19 27
19 28
19 29
19 31
19 32
19 34
19 36
19 37
19 40
19 41
19 43
19 44
19 45
19 47
19 48
19 49
19 50
19 51
19 52
19 53
19 54
19 55
19 56
19 57
19 63
19 66
19 68
19 69
19 70
19 71
19 73
19 75
19 76
20 21
20 22
20 23
20 24
20 25
20 27
20 28
20 30
20 33
20 35
20 36
20 38
20 40
20 41
20 42
20 43
20 44
20 46
20 47
20 50
20 52
20 53
20 55
20 56
20 58
20 59
20 60
20 61
20 62
20 63
20 65
20 67
20 69
20 71
20 72
20 73
20 74
20 75
20 78
20 79
21 23
21 24
21 25
21 26
21 28
21 29
21 30
21 31
21 32
21 34
21 35
21 36
21 37
21 41
21 43
21 45
21 46
21 47
21 48
21 50
21 51
21 53
21 55
21 56
21 59
21 60
21 62
21 63
21 64
21 65
21 66
21 71
21 72
21 73
21 74
21 75
21 79
22 23
22 24
22 25
22 26
22 27
22 28
22 29
22 32
22 33
22 34
22 35
22 39
22 41
22 42
22 43
22 44
22 45
22 48
22 49
22 51
22 52
22 53
22 54
22 58
22 59
22 61
22 62
22 63
22 67
22 69
22 70
22 73
22 75
22 76
22 79
23 28
23 30
23 32
23 36
23 37
23 38
23 39
23 40
23 41
23 42
23 43
23 47
23 49
23 50
23 53
23 55
23 56
23 60
23 61
23 62
23 63
23 64
23 65
23 67
23 68
23 70
23 71
23 74
23 75
23 77
23 79
24 25
24 26
24 28
24 29
24 31
24 32
24 33
24 37
24 38
24 39
24 40
24 43
24 44
24 45
24 47
24 48
24 50
24 52
24 53
24 54
24 55
24 57
24 60
24 61
24 62
24 64
24 65
24 68
24 70
24 72
24 73
24 76
24 77
24 78
25 26
25 27
25 28
25 29
25 30
25 31
25 32
25 33
25 35
25 37
25 38
25 40
25 41
25 44
25 47
25 49
25 50
25 51
25 52
25 53
25 58
25 62
25 65
25 69
25 71
25 72
25 74
25 76
25 77
25 78
25 79
26 27
26 34
26 36
26 37
26 39
26 40
26 41
26 42
26 43
26 46
26 47
26 50
26 51
26 53
26 55
26 58
26 60
26 61
26 63
26 64
26 66
26 67
26 68
26 70
26 71
26 72
26 73
26 74
26 76
26 77
27 28
27 29
27 30
27 31
27 34
27 38
27 40
27 41
27 42
27 45
27 46
27 47
27 48
27 49
27 50
27 51
27 52
27 53
27 55
27 56
27 57
27 58
27 60
27 61
27 62
27 63
27 64
27 65
27 67
27 68
27 70
27 71
27 72
27 73
27 74
27 76
27 77
27 79
28 32
28 33
28 35
28 36
28 38
28 39
28 41
28 42
28 44
28 46
28 47
28 49
28 50
28 54
28 56
28 57
28 58
28 59
28 61
28 62
28 64
28 66
28 67
28 68
28 74
28 78
28 79
29 30
29 32
29 33
29 34
29 35
29 36
29 37
29 38
29 40
29 41
29 42
29 43
29 44
29 45
29 46
29 50
29 51
29 52
29 53
29 54
29 55
29 56
29 57
29 58
29 62
29 64
29 65
29 66
29 68
29 69
29 71
29 72
29 74
29 75
29 76
29 79
30 31
30 32
30 33
30 35
30 37
30 38
30 40
30 42
30 43
30 44
30 46
30 49
30 52
30 53
30 55
30 56
30 57
30 58
30 61
30 62
30 67
30 68
30 69
30 70
30 71
30 73
30 78
30 79
31 32
31 34
31 35
31 36
31 37
31 39
31 40
31 41
31 44
31 45
31 46
31 47
31 48
31 50
31 53
31 55
31 56
31 57
31 58
31 59
31 60
31 61
31 69
31 70
31 71
31 72
31 74
31 76
31 77
32 34
32 35
32 36
32 37
32 38
32 39
32 41
32 47
32 48
32 49
32 51
32 52
32 53
32 57
32 60
32 61
32 65
32 66
32 67
32 68
32 71
32 73
32 79
33 34
33 37
33 39
33 41
33 43
33 44
33 45
33 46
33 50
33 51
33 53
33 54
33 56
33 59
33 60
33 63
33 65
33 66
33 67
33 68
33 69
33 72
33 73
33 74
33 77
33 78
33 79
34 35
34 36
34 37
34 39
34 40
34 41
34 44
34 46
34 47
34 49
34 50
34 51
34 54
34 55
34 56
34 59
34 60
34 62
34 63
34 64
34 66
34 67
34 69
34 70
34 73
34 76
34 77
34 79
35 37
35 38
35 39
35 42
35 43
35 44
35 46
35 47
35 49
35 51
35 52
35 53
35 55
35 60
35 61
35 63
35 64
35 65
35 66
35 67
35 70
35 71
35 72
35 73
35 75
35 76
35 79
36 37
36 38
36 39
36 41
36 42
36 44
36 46
36 50
36 51
36 52
36 54
36 56
36 58
36 59
36 61
36 62
36 63
36 64
36 68
36 69
36 72
36 73
36 74
36 77
36 79
37 39
37 41
37 42
37 43
37 47
37 49
37 50
37 55
37 58
37 61
37 62
37 63
37 67
37 68
37 71
37 72
37 73
37 74
37 76
38 40
38 46
38 49
38 50
38 51
38 54
38 56
38 57
38 58
38 62
38 64
38 65
38 68
38 70
38 71
38 72
38 74
38 76
38 77
38 78
39 40
39 42
39 44
39 45
39 47
39 48
39 49
39 52
39 53
39 54
39 57
39 58
39 60
39 61
39 62
39 63
39 65
39 67
39 70
39 76
39 77
39 78
39 79
40 41
40 43
40 45
40 50
40 51
40 53
40 54
40 55
40 56
40 57
40 58
40 60
40 62
40 64
40 66
40 69
40 72
40 73
40 75
40 78
40 79
41 43
41 44
41 45
41 46
41 53
41 55
41 57
41 58
41 60
41 64
41 66
41 67
41 68
41 69
41 70
41 71
41 72
41 73
41 76
41 79
42 43
42 44
42 45
42 48
42 49
42 51
42 53
42 54
42 58
42 62
42 65
42 67
42 69
42 72
42 75
42 76
42 78
42 79
43 44
43 46
43 47
43 48
43 50
43 52
43 53
43 54
43 55
43 56
43 57
43 58
43 59
43 61
43 62
43 63
43 64
43 65
43 68
43 70
43 71
43 72
43 75
43 76
43 78
44 45
44 46
44 50
44 52
44 54
44 55
44 56
44 58
44 59
44 60
44 62
44 63
44 66
44 68
44 74
44 78
44 79
45 48
45 49
45 50
45 51
45 52
45 53
45 54
45 55
45 57
45 58
45 59
45 60
45 63
45 64
45 66
45 68
45 71
45 72
45 73
45 74
45 75
45 77
45 78
45 79
46 47
46 49
46 50
46 51
46 53
46 54
46 55
46 56
46 59
46 60
46 61
46 64
46 65
46 66
46 67
46 68
46 69
46 72
46 73
46 74
46 75
46 79
47 48
47 49
47 51
47 52
47 53
47 54
47 58
47 60
47 61
47 64
47 66
47 70
47 73
47 74
47 76
47 77
47 78
48 49
48 50
48 51
48 52
48 56
48 59
48 60
48 61
48 63
48 64
48 65
48 66
48 70
48 71
48 72
48 73
48 74
48 75
48 79
49 50
49 53
49 55
49 58
49 60
49 62
49 65
49 67
49 68
49 69
49 70
49 71
49 73
49 74
49 76
49 77
49 78
49 79
50 52
50 53
50 56
50 57
50 60
50 62
50 63
50 65
50 67
50 68
50 69
50 70
50 72
50 73
50 74
50 75
50 77
50 79
51 52
51 55
51 56
51 58
51 66
51 69
51 70
51 71
51 74
51 75
51 76
51 77
51 78
51 79
52 53
52 54
52 55
52 56
52 57
52 59
52 60
52 61
52 62
52 64
52 65
52 67
52 68
52 69
52 70
52 71
52 75
52 76
52 77
52 79
53 54
53 56
53 58
53 59
53 60
53 61
53 62
53 64
53 67
53 68
53 69
53 71
53 72
53 75
53 79
54 56
54 58
54 60
54 62
54 63
54 64
54 66
54 68
54 70
54 71
54 73
54 74
54 75
54 78
54 79
55 56
55 57
55 60
55 61
55 64
55 65
55 67
55 68
55 69
55 70
55 71
55 72
55 73
55 75
55 76
55 78
55 79
56 57
56 60
56 62
56 63
56 66
56 67
56 68
56 70
56 71
56 73
56 75
56 76
56 77
56 78
57 59
57 60
57 63
57 67
57 70
57 71
57 74
57 75
57 79
58 61
58 65
58 66
58 68
58 69
58 70
58 72
58 73
58 75
58 76
58 77
59 60
59 61
59 63
59 64
59 65
59 68
59 69
59 70
59 71
59 73
59 74
59 75
59 76
59 77
60 62
60 63
60 67
60 68
60 69
60 71
60 72
60 74
60 76
60 77
61 63
61 64
61 65
61 67
61 68
61 70
61 71
61 73
61 78
61 79
62 63
62 64
62 66
62 67
62 69
62 71
62 72
62 73
62 74
62 75
62 76
62 79
63 64
63 65
63 69
63 70
63 73
63 74
63 75
63 76
63 77
63 79
64 65
64 69
64 70
64 72
64 73
64 74
64 75
64 78
64 79
65 68
65 70
65 71
65 73
65 75
65 76
65 79
66 68
66 71
66 74
66 77
66 78
67 68
67 69
67 70
67 72
67 74
67 77
67 79
68 69
68 70
68 71
68 72
68 74
68 77
68 78
69 70
69 72
69 73
69 75
69 76
69 78
69 79
70 72
70 74
70 76
70 78
70 79
71 73
71 74
71 75
71 76
71 77
72 73
72 77
72 78
72 79
73 74
73 75
73 76
73 78
73 79
74 78
75 76
75 78
75 79
76 77
76 78
78 79
11 62 65 8 59 1 24 7 54 56 29 26 28 37 33 19 52 76 66 17 70 30 36 60
47 23 16 46 14 67 27 69 13 53 68 50 58 3 78 55 6 25 18 73 74 64 63 21
5 75 71 45 9 44 72 0 39 4 32 42 15 48 38 43 77 2 61 51 10 34 12 41
49 79 35 57 40 31 22 20
